nRows = 9;
nCols = 10;

g = [
	[0,0,0,0,0,0,0,0,0,0],
	[0,0,0,0,1,1,1,1,1,0],
	[0,0,0,0,1,1,1,1,1,0],
	[0,1,1,1,1,1,1,1,1,0],
	[0,1,1,1,1,1,1,1,1,0],
	[0,1,1,1,1,1,1,1,1,0],
	[0,1,1,1,1,1,1,0,0,0],
	[0,1,1,1,1,1,1,0,0,0],
	[0,0,0,0,0,0,0,0,0,0]
];

nRectangle = 3;
rect_array = [
	<5,5,3>,
	<5,6,2>,
	<6,3,2>
];

//rect_array = [
//	<3,3,3>,
//	<3,2,2>,
//	<2,2,2>
//];